p cnf 134 164
16 17 30 51 0
16 17 30 -51 0
-17 22 30 52 0
-17 22 30 -52 0
-17 -22 30 53 0
-17 -22 30 -53 0
16 -30 47 54 0
16 -30 47 -54 0
16 -30 -47 55 0
16 -30 -47 -55 0
-16 -21 31 56 0
-16 -21 31 -56 0
-16 -21 -31 57 0
-16 -21 -31 -57 0
-16 21 -28 58 0
-16 21 -28 -58 0
-13 21 28 59 0
-13 21 28 -59 0
13 -16 18 60 0
13 -16 18 -60 0
13 -18 -38 61 0
13 -18 -38 -61 0
13 -18 -31 62 0
13 -18 -31 -62 0
31 38 44 63 0
31 38 44 -63 0
-8 31 -44 64 0
-8 31 -44 -64 0
8 -12 -44 65 0
8 -12 -44 -65 0
8 12 -27 66 0
8 12 -27 -66 0
12 27 40 67 0
12 27 40 -67 0
-4 27 -40 68 0
-4 27 -40 -68 0
12 23 -40 69 0
12 23 -40 -69 0
-3 4 -23 70 0
-3 4 -23 -70 0
3 -23 -49 71 0
3 -23 -49 -71 0
3 -13 -49 72 0
3 -13 -49 -72 0
-23 -26 49 73 0
-23 -26 49 -73 0
12 -34 49 74 0
12 -34 49 -74 0
-12 26 -34 75 0
-12 26 -34 -75 0
19 34 36 76 0
19 34 36 -76 0
-19 26 36 77 0
-19 26 36 -77 0
-30 34 -36 78 0
-30 34 -36 -78 0
24 34 -36 79 0
24 34 -36 -79 0
-24 -36 43 80 0
-24 -36 43 -80 0
6 42 -43 81 0
6 42 -43 -81 0
-24 42 -43 82 0
-24 42 -43 -82 0
-5 -24 -42 83 0
-5 -24 -42 -83 0
5 20 -42 84 0
5 20 -42 -84 0
5 -7 -20 85 0
5 -7 -20 -85 0
4 7 10 86 0
4 7 10 -86 0
-4 10 -20 87 0
-4 10 -20 -87 0
7 -10 -41 88 0
7 -10 -41 -88 0
-10 41 46 89 0
-10 41 46 -89 0
-33 41 -46 90 0
-33 41 -46 -90 0
33 -37 -46 91 0
33 -37 -46 -91 0
32 33 37 92 0
32 33 37 -92 0
6 -32 37 93 0
6 -32 37 -93 0
-6 25 -32 94 0
-6 25 -32 -94 0
-6 -25 -48 95 0
-6 -25 -48 -95 0
-9 28 48 96 0
-9 28 48 -96 0
-9 -25 -28 97 0
-9 -25 -28 -97 0
19 -25 48 98 0
19 -25 48 -98 0
2 9 -19 99 0
2 9 -19 -99 0
-2 -19 35 100 0
-2 -19 35 -100 0
-2 22 -35 101 0
-2 22 -35 -101 0
-22 -35 50 102 0
-22 -35 50 -102 0
-17 -35 -50 103 0
-17 -35 -50 -103 0
-29 -35 -50 104 0
-29 -35 -50 -104 0
-1 29 -50 105 0
-1 29 -50 -105 0
1 11 29 106 0
1 11 29 -106 0
-11 17 -45 107 0
-11 17 -45 -107 0
-11 39 45 108 0
-11 39 45 -108 0
-26 39 45 109 0
-26 39 45 -109 0
-3 -26 45 110 0
-3 -26 45 -110 0
-11 15 -39 111 0
-11 15 -39 -111 0
14 -15 -39 112 0
14 -15 -39 -112 0
14 -15 -45 113 0
14 -15 -45 -113 0
14 -15 -27 114 0
14 -15 -27 -114 0
-14 -15 47 115 0
-14 -15 47 -115 0
17 40 116 117 0
17 40 116 -117 0
17 40 -116 118 0
17 40 -116 -118 0
1 -29 -31 119 0
1 -29 -31 -119 0
-7 32 38 120 0
-7 32 38 -120 0
-14 -33 -47 121 0
-14 -33 -47 -121 0
-1 2 -8 122 0
-1 2 -8 -122 0
35 43 44 123 0
35 43 44 -123 0
21 24 124 125 0
21 24 124 -125 0
21 24 -124 126 0
21 24 -124 -126 0
20 29 -48 127 0
20 29 -48 -127 0
23 35 -37 128 0
23 35 -37 -128 0
2 18 -33 129 0
2 18 -33 -129 0
15 25 -45 130 0
15 25 -45 -130 0
9 14 -38 131 0
9 14 -38 -131 0
-5 11 50 132 0
-5 11 50 -132 0
-3 -13 46 133 0
-3 -13 46 -133 0
-13 -41 43 134 0
-13 -41 43 -134 0

